[2026-03-24T14:00:05.769Z] Pipeline "set_vm-4-t1_vm-4-t1_s009_g003" → 2026_03_24_14_00_05_set_vm-4-t1_vm-4-t1_s009_g003_max.sol
Set parameter Username
Set parameter LicenseID to value 2797659
Set parameter LogFile to value "gurobi.log"
Using license file /opt/gurobi/gurobi.lic
Academic license - for non-commercial use only - expires 2027-03-24

Gurobi Optimizer version 13.0.1 build v13.0.1rc0 (linux64 - "Ubuntu 24.04.4 LTS")
Copyright (c) 2026, Gurobi Optimization, LLC

Warning: Duplicate section found (read 'binary') - Is a variable name equal to an LP file format keyword?
Warning: Duplicate section found (read 'binary') - Is a variable name equal to an LP file format keyword?
Warning: Duplicate section found (read 'binary') - Is a variable name equal to an LP file format keyword?
Warning: Duplicate section found (read 'binary') - Is a variable name equal to an LP file format keyword?
Warning: Duplicate section found (read 'binary') - Is a variable name equal to an LP file format keyword?
Warning: Duplicate section found (read 'binary') - Is a variable name equal to an LP file format keyword?
Warning: Duplicate section found (read 'binary') - Is a variable name equal to an LP file format keyword?
Warning: Duplicate section found (read 'binary') - Is a variable name equal to an LP file format keyword?
Warning: Duplicate section found (read 'binary') - Is a variable name equal to an LP file format keyword?
Warning: Duplicate section found (read 'binary') - Is a variable name equal to an LP file format keyword?
Warning: Further warnings of this type will be omitted.
Read LP format model from file /root/bgw/data/uploads/2026_03_24_14_00_05_set_vm-4-t1_vm-4-t1_s009_g003_max.lp
Reading time = 0.01 seconds
: 18623 rows, 855 columns, 56982 nonzeros

Using Gurobi shared library /opt/gurobi1301/linux64/lib/libgurobi.so.13.0.1

CPU model: AMD EPYC-Genoa Processor, instruction set [SSE2|AVX|AVX2|AVX512]
Thread count: 16 physical cores, 16 logical processors, using up to 16 threads

Optimize a model with 18623 rows, 855 columns and 56982 nonzeros (Max)
Model fingerprint: 0x55111ff6
Model has 6 linear objective coefficients
Variable types: 45 continuous, 810 integer (810 binary)
Coefficient statistics:
  Matrix range     [1e+00, 4e+01]
  Objective range  [1e+00, 1e+00]
  Bounds range     [1e+00, 1e+00]
  RHS range        [1e+00, 4e+01]

Found heuristic solution: objective 6.0000000
Presolve removed 321 rows and 99 columns
Presolve time: 0.06s
Presolved: 18302 rows, 756 columns, 55122 nonzeros
Variable types: 0 continuous, 756 integer (750 binary)
Found heuristic solution: objective 10.0000000

Root relaxation: objective 2.700000e+01, 236 iterations, 0.03 seconds (0.04 work units)

    Nodes    |    Current Node    |     Objective Bounds      |     Work
 Expl Unexpl |  Obj  Depth IntInf | Incumbent    BestBd   Gap | It/Node Time

     0     0   27.00000    0   19   10.00000   27.00000   170%     -    0s
H    0     0                      16.0000000   27.00000  68.8%     -    0s
H    0     0                      17.0000000   27.00000  58.8%     -    0s
     0     0   27.00000    0   15   17.00000   27.00000  58.8%     -    0s
     0     0   27.00000    0   21   17.00000   27.00000  58.8%     -    0s
     0     0   27.00000    0   17   17.00000   27.00000  58.8%     -    0s
     0     0   27.00000    0   12   17.00000   27.00000  58.8%     -    0s
     0     0   27.00000    0   12   17.00000   27.00000  58.8%     -    0s
     0     0   27.00000    0   18   17.00000   27.00000  58.8%     -    0s
     0     0   27.00000    0   14   17.00000   27.00000  58.8%     -    0s
     0     0   27.00000    0   21   17.00000   27.00000  58.8%     -    0s
     0     0   27.00000    0   21   17.00000   27.00000  58.8%     -    0s
     0     0   27.00000    0   17   17.00000   27.00000  58.8%     -    0s
     0     0   27.00000    0   20   17.00000   27.00000  58.8%     -    0s
     0     0   27.00000    0   20   17.00000   27.00000  58.8%     -    0s
     0     0   27.00000    0   20   17.00000   27.00000  58.8%     -    0s
     0     0   26.62162    0   19   17.00000   26.62162  56.6%     -    0s
     0     0   26.00000    0   18   17.00000   26.00000  52.9%     -    0s
     0     0   26.00000    0   18   17.00000   26.00000  52.9%     -    0s
     0     0   26.00000    0   18   17.00000   26.00000  52.9%     -    0s
     0     0   26.00000    0   14   17.00000   26.00000  52.9%     -    0s
     0     2   26.00000    0   14   17.00000   26.00000  52.9%     -    0s

Cutting planes:
  Gomory: 3
  Lift-and-project: 1
  Cover: 6
  MIR: 5
  Inf proof: 11
  Zero half: 2

Explored 743 nodes (102344 simplex iterations) in 2.29 seconds (4.64 work units)
Thread count was 16 (of 16 available processors)

Solution count 4: 17 16 10 6 

Optimal solution found (tolerance 1.00e-04)
Best objective 1.700000000000e+01, best bound 1.700000000000e+01, gap 0.0000%

Wrote result file '/root/bgw/data/results/2026_03_24_14_00_05_set_vm-4-t1_vm-4-t1_s009_g003_max.sol'

